(set-info :smt-lib-version 2.6)
(set-logic QF_UFNIRA)
(set-info :source |
Generated by: Geoff Sutcliffe
Generated on: 2026-03-11
Generator: TPTPWorld
Application: Benchmarking automated theorem provers
Time limit: 120.0

These benchmarks are translations from the TPTP Library (Thousands of
Problems for Theorem Provers), see http://www.cs.miami.edu/~tptp/

The TPTP is maintained by Geoff Sutcliffe, and he contributed this
selection of benchmarks to SMT-LIB.  They were exported from the
v9.2.1 realease of TPTP.
|)
(set-info :category "industrial")
(set-info :status "unknown")
; SZS status Success
(declare-sort $$unsorted 0)
(declare-fun tptp.x () Int)
(declare-fun tptp.a () Int)
(declare-fun tptp.z () Int)
(declare-fun tptp.y () Int)
(assert (= (+ (* 3 tptp.x) (* 5 tptp.a)) 1))
(assert (= (+ (* 7 tptp.z) (* (- 1) (* 17 tptp.x))) 4))
(assert (= (+ (+ (* 2 tptp.y) (* 7 tptp.x)) (* (- 1) (* (- 1) 34))) 0))
(assert (let ((_let_1 (to_real 170))) (let ((_let_2 (to_real (+ tptp.z 116)))) (let ((_let_3 (/ _let_2 _let_1))) (not (= (to_int (- _let_2 (* (ite (>= _let_3 0.0) (to_int _let_3) (- (to_int (- _let_3)))) _let_1))) 0))))))
(check-sat)
